clear
set verbose off

string DATADIR = "/home/admin-tarassow/git/forecasting_principles/data/gdt"

open "@DATADIR/aus_production.gdt" --preserve

include stl.inp --force
include decomposition.inp --force
series y = Electricity

# Classical decomposition
scalar MULTIPLICATIVE = FALSE

if MULTIPLICATIVE
    list L = decomposition(y, TRUE)
else
    list L = decomposition(y, FALSE)
endif
L += y
scatters L --output=display

# STL decomposition
list L = empty
scalar ROBUST = TRUE

if ROBUST
    list L = stl_decompose(y, 13, 0, 0, 0, 0, ROBUST)
else
    list L = stl_decompose(y, 13)
endif
L += y
scatters L --output=display



